c Circuit-CNF generated by TG-PRO v1.0 (c) Huan Chen and Joao Marques-Silva
p cnf 231 562
1 2 0
-1 -2 0
3 4 0
-3 -4 0
5 6 0
-5 -6 0
7 8 0
-7 -8 0
9 10 0
-9 -10 0
11 12 0
-11 -12 0
-13 14 0
-13 15 0
13 -14 -15 0
-16 17 0
-16 18 0
16 -17 -18 0
-19 -20 0
-19 -21 0
19 20 21 0
-22 -23 0
-22 -24 0
22 23 24 0
-25 -26 0
-25 -27 0
25 26 27 0
28 29 0
28 30 0
-28 -29 -30 0
-31 -32 0
-31 -33 0
31 32 33 0
-34 -35 0
-34 -36 0
34 35 36 0
37 38 0
-37 -38 0
-39 -40 0
-39 -41 0
39 40 41 0
-42 -43 0
-42 -41 0
42 43 41 0
-44 -45 0
-44 -41 0
44 45 41 0
-46 -47 0
-46 -41 0
46 47 41 0
-48 -49 0
-48 -50 0
48 49 50 0
-51 -52 0
-51 -50 0
51 52 50 0
-53 -54 0
-53 -50 0
53 54 50 0
-55 -56 0
-55 -50 0
55 56 50 0
-57 -58 0
-57 -59 0
57 58 59 0
-60 -61 0
-60 -59 0
60 61 59 0
-62 -63 0
-62 -59 0
62 63 59 0
-64 -65 0
-64 -59 0
64 65 59 0
66 67 0
-66 -67 0
68 69 0
-68 -69 0
70 71 0
-70 -71 0
72 73 0
-72 -73 0
74 75 0
-74 -75 0
76 77 0
-76 -77 0
78 79 0
-78 -79 0
80 81 0
-80 -81 0
82 83 0
-82 -83 0
84 85 0
-84 -85 0
86 87 0
-86 -87 0
88 89 0
-88 -89 0
90 91 0
-90 -91 0
92 93 0
-92 -93 0
94 95 0
-94 -95 0
96 97 0
-96 -97 0
98 99 0
-98 -99 0
100 101 0
-100 -101 0
102 69 0
-102 -69 0
103 104 0
-103 -104 0
21 81 0
-21 -81 0
105 79 0
-105 -79 0
106 77 0
-106 -77 0
107 75 0
-107 -75 0
108 97 0
-108 -97 0
2 109 0
-2 -109 0
4 110 0
-4 -110 0
111 112 0
-111 -112 0
6 113 0
-6 -113 0
8 114 0
-8 -114 0
115 98 0
-115 -98 0
116 100 0
-116 -100 0
117 103 0
-117 -103 0
118 108 0
-118 -108 0
119 96 0
-119 -96 0
10 72 0
-10 -72 0
12 70 0
-12 -70 0
120 115 0
-120 -115 0
14 116 0
-14 -116 0
17 116 0
-17 -116 0
121 116 0
-121 -116 0
122 117 0
-122 -117 0
-123 -59 0
-123 -67 0
123 59 67 0
124 123 0
-124 -123 0
125 -126 0
125 -91 0
-125 126 91 0
127 125 0
-127 -125 0
-50 -128 0
-50 -82 0
50 128 82 0
129 50 0
-129 -50 0
130 131 0
130 132 0
-130 -131 -132 0
18 130 0
-18 -130 0
133 134 0
133 135 0
-133 -134 -135 0
15 133 0
-15 -133 0
136 137 0
136 138 0
-136 -137 -138 0
38 136 0
-38 -136 0
139 136 0
-139 -136 0
140 -141 0
140 -83 0
-140 141 83 0
142 140 0
-142 -140 0
143 129 0
-143 -129 0
144 -145 0
144 -75 0
-144 145 75 0
146 144 0
-146 -144 0
147 148 0
147 81 0
-147 -148 -81 0
-36 147 0
-36 112 0
36 -147 -112 0
-149 112 0
-149 121 0
149 -112 -121 0
-150 77 0
-150 121 0
150 -77 -121 0
-151 152 0
-151 121 0
151 -152 -121 0
-33 153 0
-33 121 0
33 -153 -121 0
-27 136 0
-27 84 0
27 -136 -84 0
154 137 0
154 155 0
-154 -137 -155 0
-24 154 0
-24 84 0
24 -154 -84 0
-23 139 0
-23 154 0
23 -139 -154 0
156 157 0
156 158 0
-156 -157 -158 0
-26 139 0
-26 156 0
26 -139 -156 0
159 -160 0
159 -112 0
-159 160 112 0
161 -162 0
161 -102 0
-161 162 102 0
30 -163 0
30 -112 0
-30 163 112 0
164 -107 0
164 -102 0
-164 107 102 0
132 -115 0
132 -69 0
-132 115 69 0
157 -106 0
157 -116 0
-157 106 116 0
158 -165 0
158 -116 0
-158 165 116 0
166 -167 0
166 -116 0
-166 167 116 0
168 -169 0
168 -116 0
-168 169 116 0
135 -117 0
135 -67 0
-135 117 67 0
170 105 0
170 81 0
-170 -105 -81 0
171 -172 0
171 -106 0
-171 172 106 0
-126 -173 0
-126 -96 0
126 173 96 0
-174 -94 0
-174 -96 0
174 94 96 0
175 -174 0
175 -93 0
-175 174 93 0
176 -119 0
176 -95 0
-176 119 95 0
131 -120 0
131 -68 0
-131 120 68 0
134 -122 0
134 -66 0
-134 122 66 0
-141 -177 0
-141 -88 0
141 177 88 0
-178 -179 0
-178 -88 0
178 179 88 0
180 -178 0
180 -85 0
-180 178 85 0
-181 -123 0
-181 -88 0
181 123 88 0
182 -181 0
182 -87 0
-182 181 87 0
183 -124 0
183 -89 0
-183 124 89 0
-145 -184 0
-145 -80 0
145 184 80 0
-185 -186 0
-185 -80 0
185 186 80 0
187 -185 0
187 -77 0
-187 185 77 0
-188 -129 0
-188 -80 0
188 129 80 0
189 -188 0
189 -79 0
-189 188 79 0
190 -143 0
190 -81 0
-190 143 81 0
191 174 0
191 93 0
-191 -174 -93 0
192 119 0
192 95 0
-192 -119 -95 0
193 166 0
193 168 0
-193 -166 -168 0
-194 -195 0
-194 -79 0
194 195 79 0
138 194 0
138 21 0
-138 -194 -21 0
20 196 0
20 79 0
-20 -196 -79 0
35 197 0
35 161 0
-35 -197 -161 0
-198 -116 0
-198 -111 0
198 116 111 0
137 198 0
137 171 0
-137 -198 -171 0
199 175 0
199 191 0
-199 -175 -191 0
200 176 0
200 192 0
-200 -176 -192 0
155 201 0
155 21 0
-155 -201 -21 0
202 178 0
202 85 0
-202 -178 -85 0
203 181 0
203 87 0
-203 -181 -87 0
204 124 0
204 89 0
-204 -124 -89 0
205 180 0
205 202 0
-205 -180 -202 0
206 182 0
206 203 0
-206 -182 -203 0
207 183 0
207 204 0
-207 -183 -204 0
208 185 0
208 77 0
-208 -185 -77 0
209 188 0
209 79 0
-209 -188 -79 0
210 143 0
210 81 0
-210 -143 -81 0
211 187 0
211 208 0
-211 -187 -208 0
212 189 0
212 209 0
-212 -189 -209 0
213 190 0
213 210 0
-213 -190 -210 0
-214 -215 0
-214 -81 0
214 215 81 0
-216 -217 0
-216 -97 0
216 217 97 0
-218 -219 0
-218 -89 0
218 219 89 0
-59 -216 0
-59 -90 0
59 216 90 0
-41 -220 0
-41 -74 0
41 220 74 0
-29 121 0
-29 159 0
29 -121 -159 0
221 -149 0
221 -150 0
-221 149 150 0
32 -221 0
32 -151 0
-32 221 151 0
40 -116 0
40 -146 0
-40 116 146 0
43 -116 0
43 -211 0
-43 116 211 0
45 -116 0
45 -212 0
-45 116 212 0
47 -116 0
47 -213 0
-47 116 213 0
49 -116 0
49 -142 0
-49 116 142 0
52 -116 0
52 -205 0
-52 116 205 0
54 -116 0
54 -206 0
-54 116 206 0
56 -116 0
56 -207 0
-56 116 207 0
58 -116 0
58 -127 0
-58 116 127 0
61 -116 0
61 -199 0
-61 116 199 0
63 -116 0
63 -200 0
-63 116 200 0
65 -116 0
65 -118 0
-65 116 118 0
128 -218 0
128 -123 0
-128 218 123 0
-222 102 0
-222 107 0
222 -102 -107 0
-148 222 0
-148 105 0
148 -222 -105 0
-152 81 0
-152 79 0
152 -81 -79 0
-153 21 0
-153 75 0
153 -21 -75 0
160 -77 0
160 -75 0
-160 77 75 0
162 -81 0
162 -79 0
-162 81 79 0
223 -21 0
223 -79 0
-223 21 79 0
163 -223 0
163 -77 0
-163 223 77 0
224 -81 0
224 -79 0
-224 81 79 0
165 -224 0
165 -107 0
-165 224 107 0
167 -77 0
167 -107 0
-167 77 107 0
225 -106 0
225 -75 0
-225 106 75 0
169 -225 0
169 -102 0
-169 225 102 0
226 -170 0
226 -69 0
-226 170 69 0
172 -226 0
172 -75 0
-172 226 75 0
173 -92 0
173 -94 0
-173 92 94 0
227 -123 0
227 -84 0
-227 123 84 0
177 -227 0
177 -86 0
-177 227 86 0
179 -123 0
179 -86 0
-179 123 86 0
228 -129 0
228 -76 0
-228 129 76 0
184 -228 0
184 -78 0
-184 228 78 0
186 -129 0
186 -78 0
-186 129 78 0
229 -116 0
229 -102 0
-229 116 102 0
195 -229 0
195 -106 0
-195 229 106 0
-230 121 0
-230 111 0
230 -121 -111 0
-196 230 0
-196 106 0
196 -230 -106 0
-231 121 0
-231 77 0
231 -121 -77 0
-197 231 0
-197 164 0
197 -231 -164 0
-201 193 0
-201 105 0
201 -193 -105 0
215 -77 0
215 -79 0
-215 77 79 0
217 -93 0
217 -95 0
-217 93 95 0
219 -85 0
219 -87 0
-219 85 87 0
220 -214 0
220 -129 0
-220 214 129 0
